172
0 2 3 6 7 11 12 17 18 24 32 39 55 57 87 95 111 135 185 226 332 404 893 935 995 1007 1115 1182 154 374 376 591 706 866 1616 1760 151 213 390 1001 1215 1315 1328 28 148 403 652 775 930 1058 1599 250 636 701 934 939 1068 193 539 573 914 1483 1519 1588 1713 27 165 1180 52 421 455 737 824 1046 1795 210 547 704 755 812 1595 1645 158 395 553 736 1124 1359 1524 46 115 282 414 523 699 1518 142 178 520 613 789 856 1250 1300 1349 1429 1526 1626 431 675 688 884 997 1373 200 218 423 569 973 1126 1167 1413 1448 1672 124 398 557 618 770 840 868 5 84 131 409 417 499 714 841 1069 1093 1289 1376 1585 1614 13 106 215 397 428 508 533 1254 1307 1559 119 230 241 258 289 396 506 538 758 765 1431 10 42 49 91 121 132
